0 2675
1 2490
2 2490
3 2384
4 2370
5 2294
6 2211
7 2008
8 2008
9 2008
10 1967
11 1897
12 1890
13 1830
14 1830
15 1825
16 1741
17 1708
18 1708
19 1676
20 1672
21 1634
22 1634
23 1624
24 1624
25 1624
26 1490
27 1490
28 1490
29 1476
30 1476
31 1476
32 1454
33 1454
34 1454
35 1454
36 1418
37 1418
38 1418
39 1418
40 1408
41 1390
42 1370
43 1370
44 1355
45 1334
46 1334
47 1334
48 1334
49 1297
50 1297
51 1297
52 1297
53 1297
54 1287
55 1287
56 1267
57 1267
58 1266
59 1262
60 1262
61 1262
62 1262
63 1246
64 1246
65 1246
66 1246
67 1244
68 1236
69 1236
70 1235
71 1220
72 1220
73 1220
74 1220
75 1220
76 1220
77 1212
78 1212
79 1212
80 1212
81 1212
82 1199
83 1199
84 1199
85 1199
86 1195
87 1195
88 1195
89 1195
90 1195
91 1195
92 1195
93 1194
94 1194
95 1194
96 1185
97 1185
98 1185
99 1185
100 1185
101 1184
102 1184
103 1184
104 1184
105 1184
106 1184
107 1183
108 1164
109 1164
110 1164
111 1164
112 1164
113 1164
114 1164
115 1164
116 1161
117 1161
118 1160
119 1160
120 1160
121 1160
122 1160
123 1160
124 1154
125 1154
126 1154
127 1153
128 1153
129 1153
130 1153
131 1151
132 1151
133 1146
134 1146
135 1146
136 1146
137 1139
138 1139
139 1139
140 1139
141 1138
142 1136
143 1136
144 1136
145 1136
146 1136
147 1134
148 1134
149 1124
150 1124
151 1124
152 1124
153 1124
154 1124
155 1124
156 1124
157 1124
158 1124
159 1124
160 1124
161 1124
162 1124
163 1124
164 1124
165 1124
166 1124
167 1124
168 1124
169 1124
170 1124
171 1124
172 1124
173 1119
174 1119
175 1119
176 1114
177 1114
178 1114
179 1114
180 1114
181 1114
182 1114
183 1114
184 1114
185 1114
186 1114
187 1111
188 1111
189 1111
190 1111
191 1111
192 1111
193 1108
194 1108
195 1108
196 1108
197 1108
198 1108
199 1108
200 1108
201 1107
202 1107
203 1107
204 1107
205 1107
206 1107
207 1107
208 1107
209 1107
210 1107
211 1107
212 1107
213 1105
214 1105
215 1101
216 1101
217 1101
218 1100
219 1100
220 1100
221 1100
222 1100
223 1100
224 1100
225 1100
226 1100
227 1100
228 1100
229 1100
230 1100
231 1099
232 1099
233 1099
234 1099
235 1099
236 1099
237 1099
238 1099
239 1099
240 1099
241 1099
242 1099
243 1099
244 1099
245 1098
246 1096
247 1096
248 1084
249 1084
250 1084
251 1084
252 1084
253 1084
254 1083
255 1083
256 1083
257 1083
258 1069
259 1069
260 1069
261 1069
262 1069
263 1069
264 1069
265 1069
266 1069
267 1069
268 1069
269 1069
270 1066
271 1066
272 1066
273 1056
274 1056
275 1056
276 1056
277 1056
278 1056
279 1056
280 1056
281 1056
282 1056
283 1056
284 1056
285 1056
286 1056
287 1055
288 1055
289 1055
290 1055
291 1055
292 1055
293 1055
294 1055
295 1055
296 1055
297 1055
298 1055
299 1055
300 1055
301 1055
302 1055
303 1055
304 1055
305 1055
306 1055
307 1055
308 1055
309 1055
310 1055
311 1055
312 1055
313 1055
314 1055
315 1055
316 1055
317 1055
318 1055
319 1055
320 1055
321 1055
322 1055
323 1055
324 1055
325 1055
326 1055
327 1055
328 1055
329 1055
330 1055
331 1055
332 1055
333 1055
334 1055
335 1055
336 1055
337 1055
338 1055
339 1055
340 1055
341 1055
342 1055
343 1055
344 1055
345 1055
346 1055
347 1055
348 1055
349 1055
350 1055
351 1055
352 1055
353 1055
354 1055
355 1055
356 1055
357 1055
358 1055
359 1055
360 1055
361 1055
362 1055
363 1055
364 1055
365 1055
366 1055
367 1055
368 1055
369 1055
370 1055
371 1055
372 1055
373 1055
374 1055
375 1055
376 1055
377 1055
378 1055
379 1055
380 1055
381 1055
382 1055
383 1055
384 1055
385 1055
386 1055
387 1055
388 1055
389 1055
390 1055
391 1055
392 1055
393 1055
394 1055
395 1055
396 1055
397 1055
398 1055
399 1055
400 1055
401 1055
402 1055
403 1055
404 1055
405 1055
406 1055
407 1055
408 1055
409 1055
410 1055
411 1055
412 1055
413 1055
414 1055
415 1055
416 1055
417 1055
418 1055
419 1055
420 1055
421 1055
422 1055
423 1055
424 1055
425 1055
426 1055
427 1055
428 1055
429 1055
430 1055
431 1055
432 1055
433 1055
434 1055
435 1055
436 1055
437 1055
438 1055
439 1055
440 1055
441 1055
442 1055
443 1055
444 1055
445 1055
446 1055
447 1055
448 1055
449 1055
450 1055
451 1055
452 1055
453 1055
454 1055
455 1055
456 1055
457 1055
458 1055
459 1055
460 1055
461 1055
462 1055
463 1055
464 1055
465 1055
466 1055
467 1055
468 1055
469 1055
470 1055
471 1055
472 1055
473 1055
474 1055
475 1055
476 1055
477 1055
478 1055
479 1055
480 1055
481 1055
482 1055
483 1055
484 1055
485 1055
486 1055
487 1055
488 1055
489 1055
490 1055
491 1055
492 1055
493 1055
494 1055
495 1055
496 1055
497 1055
498 1055
499 1055
500 1055
501 1055
502 1055
503 1055
504 1055
505 1055
506 1055
507 1055
508 1055
509 1055
510 1055
511 1055
512 1055
513 1055
514 1055
515 1055
516 1055
517 1055
518 1055
519 1055
520 1055
521 1055
522 1055
523 1055
524 1055
525 1055
526 1055
527 1055
528 1055
529 1055
530 1055
531 1055
532 1055
533 1055
534 1055
535 1055
536 1055
537 1055
538 1055
539 1055
540 1055
541 1055
542 1055
543 1055
544 1055
545 1055
546 1055
547 1055
548 1055
549 1055
550 1055
551 1055
552 1055
553 1055
554 1055
555 1055
556 1055
557 1055
558 1055
559 1055
560 1055
561 1055
562 1055
563 1055
564 1055
565 1055
566 1055
567 1055
568 1055
569 1055
570 1055
571 1055
572 1055
573 1055
574 1055
575 1055
576 1055
577 1055
578 1055
579 1055
580 1055
581 1055
582 1055
583 1055
584 1055
585 1055
586 1055
587 1055
588 1055
589 1055
590 1055
591 1055
592 1055
593 1055
594 1055
595 1055
596 1055
597 1055
598 1055
599 1055
600 1055
601 1055
602 1055
603 1055
604 1055
605 1055
606 1055
607 1055
608 1055
609 1055
610 1055
611 1055
612 1055
613 1055
614 1055
615 1055
616 1055
617 1055
618 1055
619 1055
620 1055
621 1055
622 1055
623 1055
624 1055
625 1055
626 1055
627 1055
628 1055
629 1055
630 1055
631 1055
632 1055
633 1055
634 1055
635 1055
636 1055
637 1055
638 1055
639 1055
640 1055
641 1055
642 1055
643 1055
644 1055
645 1055
646 1055
647 1055
648 1055
649 1055
650 1055
651 1055
652 1055
653 1055
654 1055
655 1055
656 1055
657 1055
658 1055
659 1055
660 1055
661 1055
662 1055
663 1055
664 1055
665 1055
666 1055
667 1055
668 1055
669 1055
670 1055
671 1055
672 1055
673 1055
674 1055
675 1055
676 1055
677 1055
678 1055
679 1055
680 1055
681 1055
682 1055
683 1055
684 1055
685 1055
686 1055
687 1055
688 1055
689 1055
690 1055
691 1055
692 1055
693 1055
694 1055
695 1055
696 1055
697 1055
698 1055
699 1055
700 1055
701 1055
702 1055
703 1055
704 1055
705 1055
706 1055
707 1055
708 1055
709 1055
710 1055
711 1055
712 1055
713 1055
714 1055
715 1055
716 1055
717 1055
718 1055
719 1055
720 1055
721 1055
722 1055
723 1055
724 1055
725 1055
726 1055
727 1055
728 1055
729 1055
730 1055
731 1055
732 1055
733 1055
734 1055
735 1055
736 1055
737 1055
738 1055
739 1055
740 1055
741 1055
742 1055
743 1055
744 1055
745 1055
746 1055
747 1055
748 1055
749 1055
750 1055
751 1055
752 1055
753 1055
754 1055
755 1055
756 1055
757 1055
758 1055
759 1055
760 1055
761 1055
762 1055
763 1055
764 1055
765 1055
766 1055
767 1055
768 1055
769 1055
770 1055
771 1055
772 1055
773 1055
774 1055
775 1055
776 1055
777 1055
778 1055
779 1055
780 1055
781 1055
782 1055
783 1055
784 1055
785 1055
786 1055
787 1055
788 1055
789 1055
790 1055
791 1055
792 1055
793 1055
794 1055
795 1055
796 1055
797 1055
798 1055
799 1055
800 1055
801 1055
802 1055
803 1055
804 1055
805 1055
806 1055
807 1055
808 1055
809 1055
810 1055
811 1055
812 1055
813 1055
814 1055
815 1055
816 1055
817 1055
818 1055
819 1055
820 1055
821 1055
822 1055
823 1055
824 1055
825 1055
826 1055
827 1055
828 1055
829 1055
830 1055
831 1055
832 1055
833 1055
834 1055
835 1055
836 1055
837 1055
838 1055
839 1055
840 1055
841 1055
842 1055
843 1055
844 1055
845 1055
846 1055
847 1055
848 1055
849 1055
850 1055
851 1055
852 1055
853 1055
854 1055
855 1055
856 1055
857 1055
858 1055
859 1055
860 1055
861 1055
862 1055
863 1055
864 1055
865 1055
866 1055
867 1055
868 1055
869 1055
870 1055
871 1055
872 1055
873 1055
874 1055
875 1055
876 1055
877 1055
878 1055
879 1055
880 1055
881 1055
882 1055
883 1055
884 1055
885 1055
886 1055
887 1055
888 1055
889 1055
890 1055
891 1055
892 1055
893 1055
894 1055
895 1055
896 1055
897 1055
898 1055
899 1055
900 1055
901 1055
902 1055
903 1055
904 1055
905 1055
906 1055
907 1055
908 1055
909 1055
910 1055
911 1055
912 1055
913 1055
914 1055
915 1055
916 1055
917 1055
918 1055
919 1055
920 1055
921 1055
922 1055
923 1055
924 1055
925 1055
926 1055
927 1055
928 1055
929 1055
930 1055
931 1055
932 1055
933 1055
934 1055
935 1055
936 1055
937 1055
938 1055
939 1055
940 1055
941 1055
942 1055
943 1055
944 1055
945 1055
946 1055
947 1055
948 1055
949 1055
950 1055
951 1055
952 1055
953 1055
954 1055
955 1055
956 1055
957 1055
958 1055
959 1055
960 1055
961 1055
962 1055
963 1055
964 1055
965 1055
966 1055
967 1055
968 1055
969 1055
970 1055
971 1055
972 1055
973 1055
974 1055
975 1055
976 1055
977 1055
978 1055
979 1055
980 1055
981 1055
982 1055
983 1055
984 1055
985 1055
986 1055
987 1055
988 1055
989 1055
990 1055
991 1055
992 1055
993 1055
994 1055
995 1055
996 1055
997 1055
998 1055
999 1055
Best: [[33,16,31,12,18],
       [25,28,36,26],
       [7,9,6,4,2,21,15],
       [13,23,24,29,3,34,37,30],
       [17,8,14,11,27,5],
       [19,22,10,20,32,35]], fitness: 1055
